
<<< setup

Version identifier: 22.1.1.0 | 2022-11-27 | 9160aff4d
Tried aggregator 1 time.
LP Presolve eliminated 1453 rows and 1350 columns.
Reduced LP has 52 rows, 131 columns, and 237 nonzeros.
Presolve time = 0.00 sec. (2.69 ticks)

Iteration log . . .
Iteration:     1   Dual infeasibility =           752.052892
Iteration:    55   Dual objective     =          1291.011105
main returns 0

<<< main


<<< done

